
  32    4
  10   10   10   10

   0   0   0   0   0   4 2 3 5 8 
  10   1   1   0   1   2 7 4 
   2   5   0   1   4   3 14 9 6 
   2   0   9   7   6   3 14 10 6 
   3   5   5   0   5   3 11 10 7 
   1   4   3   3   0   3 17 12 11 
   6   0   3   4   3   3 14 13 12 
   3   2   7   4   0   3 17 12 10 
   3   3   5   4   0   2 19 10 
   3   6   0   5   5   2 18 13 
   4   2   4   0   3   2 19 13 
   7   0   3   4   4   4 23 20 19 18 
   4   0   8   5   2   3 20 16 15 
   3   4   1   7   0   3 22 19 17 
   7   4   3   3   0   4 31 29 23 21 
   3   4   3   0   3   3 31 22 21 
   2   3   0   1   3   6 31 30 29 25 24 23 
   4   5   0   4   4   4 31 26 25 22 
   8   2   5   4   0   2 29 21 
   1   4   0   3   5   5 31 30 29 25 24 
   4   1   0   6   3   4 30 26 25 24 
   2   6   5   0   6   2 29 24 
   9   6   0   4   5   2 28 26 
   5   0   3   5   3   1 28 
  10   6   0   2   4   1 27 
  10   7   3   0   5   1 27 
   1   3   4   6   0   1 32
   5   6   1   2   0   1 32
   1   4   4   5   0   1 32
   9   5   4   3   0   1 32
   5   2   4   0   6   1 32
   0   0   0   0   0   0 
